min : 11x1 + 11x2 + 11x3 + 11x4 + 11x5 + 11x6 + 10x7 + 10x8 + 10x9 + 10x10 + 7x11 + 7x12 + 7x13;


C10 : 1x7 + 1x8 + 1x9 + 1x10 <=1;

C7 : 1x11 + 1x12 + 1x13 <=1;

L2 : 5x1 + 3x2 + 1x3 + 3x4 + 1x5 + 5x7 + 3x8 + 1x9 + 3x11 + 1x12 + 1x13 >= 17;

L4 : 1x2 + 2x3 + 1x5 + 1x8 + 2x9 + 1x12 >= 9;

L5 : 1x4 + 1x5 + 2x6 + 2x10 + 1x13 >= 5;